


Minimize
x_0 + x_1 + x_2 + x_3 + x_4 + x_5 + x_6 + x_7 + x_8 + x_9 + x_10 + x_11 + x_12 + x_13 + x_14 + x_15 + x_16 + x_17 + x_18 + x_19 + x_20 + x_21 + x_22 + x_23 + x_24 + x_25 + x_26 + x_27 + x_28 + x_29 + x_30 + x_31 + x_32 + x_33 + x_34 + x_35 + x_36 + x_37 + x_38 + x_39 + x_40 + x_41 + x_42 + x_43 + x_44 + x_45 + x_46 + x_47 + x_48 + x_49 + x_50 + x_51 + x_52 + x_53 + x_54 + x_55 + x_56 + x_57 + x_58 + x_59 + x_60 + x_61 + x_62 + x_63 + x_64 + x_65 + x_66 + x_67 + x_68 + x_69 + x_70 + x_71 + x_72 + x_73 + x_74 + x_75 + x_76 + x_77 + x_78 + x_79 + x_80 + x_81 + x_82 + x_83 + x_84 + x_85 + x_86 + x_87 + x_88 + x_89 + x_90 + x_91 + x_92 + x_93 + x_94 + x_95 + x_96 + x_97 + x_98 + x_99 + x_100 + x_101 + x_102 + x_103 + x_104 + x_105 + x_106 + x_107 + x_108 + x_109 + x_110 + x_111 + x_112 + x_113 + x_114 + x_115 + x_116 + x_117 + x_118 + x_119 + x_120 + x_121 + x_122 + x_123 + x_124 + x_125 + x_126 + x_127 + x_128 + x_129 + x_130 + x_131 + x_132 + x_133 + x_134 + x_135 + x_136 + x_137 + x_138 + x_139 + x_140 + x_141 + x_142 + x_143 + x_144 + x_145 + x_146 + x_147 + x_148 + x_149 + x_150 + x_151 + x_152 + x_153 + x_154 + x_155 + x_156 + x_157 + x_158 + x_159 + x_160 + x_161 + x_162 + x_163 + x_164 + x_165 + x_166 + x_167 + x_168 + x_169 + x_170 + x_171 + x_172 + x_173 + x_174 + x_175 

Subject To
x_0   +  x_16   +  x_1   +  x_17   +  x_2   +  x_18   +  x_3   +  x_19  - 5 d0 >= 0
 d0  - x_0 >= 0
 d0  - x_16 >= 0
 d0  - x_1 >= 0
 d0  - x_17 >= 0
 d0  - x_2 >= 0
 d0  - x_18 >= 0
 d0  - x_3 >= 0
 d0  - x_19 >= 0
x_4   +  x_20   +  x_5   +  x_21   +  x_6   +  x_22   +  x_7   +  x_23  - 5 d1 >= 0
 d1  - x_4 >= 0
 d1  - x_20 >= 0
 d1  - x_5 >= 0
 d1  - x_21 >= 0
 d1  - x_6 >= 0
 d1  - x_22 >= 0
 d1  - x_7 >= 0
 d1  - x_23 >= 0
x_8   +  x_24   +  x_9   +  x_25   +  x_10   +  x_26   +  x_11   +  x_27  - 5 d2 >= 0
 d2  - x_8 >= 0
 d2  - x_24 >= 0
 d2  - x_9 >= 0
 d2  - x_25 >= 0
 d2  - x_10 >= 0
 d2  - x_26 >= 0
 d2  - x_11 >= 0
 d2  - x_27 >= 0
x_12   +  x_28   +  x_13   +  x_29   +  x_14   +  x_30   +  x_15   +  x_31  - 5 d3 >= 0
 d3  - x_12 >= 0
 d3  - x_28 >= 0
 d3  - x_13 >= 0
 d3  - x_29 >= 0
 d3  - x_14 >= 0
 d3  - x_30 >= 0
 d3  - x_15 >= 0
 d3  - x_31 >= 0
x_16   +  x_32   +  x_20   +  x_33   +  x_24   +  x_34   +  x_28   +  x_35  - 5 d4 >= 0
 d4  - x_16 >= 0
 d4  - x_32 >= 0
 d4  - x_20 >= 0
 d4  - x_33 >= 0
 d4  - x_24 >= 0
 d4  - x_34 >= 0
 d4  - x_28 >= 0
 d4  - x_35 >= 0
x_17   +  x_36   +  x_21   +  x_37   +  x_25   +  x_38   +  x_29   +  x_39  - 5 d5 >= 0
 d5  - x_17 >= 0
 d5  - x_36 >= 0
 d5  - x_21 >= 0
 d5  - x_37 >= 0
 d5  - x_25 >= 0
 d5  - x_38 >= 0
 d5  - x_29 >= 0
 d5  - x_39 >= 0
x_18   +  x_40   +  x_22   +  x_41   +  x_26   +  x_42   +  x_30   +  x_43  - 5 d6 >= 0
 d6  - x_18 >= 0
 d6  - x_40 >= 0
 d6  - x_22 >= 0
 d6  - x_41 >= 0
 d6  - x_26 >= 0
 d6  - x_42 >= 0
 d6  - x_30 >= 0
 d6  - x_43 >= 0
x_19   +  x_44   +  x_23   +  x_45   +  x_27   +  x_46   +  x_31   +  x_47  - 5 d7 >= 0
 d7  - x_19 >= 0
 d7  - x_44 >= 0
 d7  - x_23 >= 0
 d7  - x_45 >= 0
 d7  - x_27 >= 0
 d7  - x_46 >= 0
 d7  - x_31 >= 0
 d7  - x_47 >= 0
x_32   +  x_48   +  x_36   +  x_49   +  x_40   +  x_50   +  x_44   +  x_51  - 5 d8 >= 0
 d8  - x_32 >= 0
 d8  - x_48 >= 0
 d8  - x_36 >= 0
 d8  - x_49 >= 0
 d8  - x_40 >= 0
 d8  - x_50 >= 0
 d8  - x_44 >= 0
 d8  - x_51 >= 0
x_33   +  x_52   +  x_37   +  x_53   +  x_41   +  x_54   +  x_45   +  x_55  - 5 d9 >= 0
 d9  - x_33 >= 0
 d9  - x_52 >= 0
 d9  - x_37 >= 0
 d9  - x_53 >= 0
 d9  - x_41 >= 0
 d9  - x_54 >= 0
 d9  - x_45 >= 0
 d9  - x_55 >= 0
x_34   +  x_56   +  x_38   +  x_57   +  x_42   +  x_58   +  x_46   +  x_59  - 5 d10 >= 0
 d10  - x_34 >= 0
 d10  - x_56 >= 0
 d10  - x_38 >= 0
 d10  - x_57 >= 0
 d10  - x_42 >= 0
 d10  - x_58 >= 0
 d10  - x_46 >= 0
 d10  - x_59 >= 0
x_35   +  x_60   +  x_39   +  x_61   +  x_43   +  x_62   +  x_47   +  x_63  - 5 d11 >= 0
 d11  - x_35 >= 0
 d11  - x_60 >= 0
 d11  - x_39 >= 0
 d11  - x_61 >= 0
 d11  - x_43 >= 0
 d11  - x_62 >= 0
 d11  - x_47 >= 0
 d11  - x_63 >= 0
x_48   +  x_64   +  x_52   +  x_65   +  x_56   +  x_66   +  x_60   +  x_67  - 5 d12 >= 0
 d12  - x_48 >= 0
 d12  - x_64 >= 0
 d12  - x_52 >= 0
 d12  - x_65 >= 0
 d12  - x_56 >= 0
 d12  - x_66 >= 0
 d12  - x_60 >= 0
 d12  - x_67 >= 0
x_49   +  x_68   +  x_53   +  x_69   +  x_57   +  x_70   +  x_61   +  x_71  - 5 d13 >= 0
 d13  - x_49 >= 0
 d13  - x_68 >= 0
 d13  - x_53 >= 0
 d13  - x_69 >= 0
 d13  - x_57 >= 0
 d13  - x_70 >= 0
 d13  - x_61 >= 0
 d13  - x_71 >= 0
x_50   +  x_72   +  x_54   +  x_73   +  x_58   +  x_74   +  x_62   +  x_75  - 5 d14 >= 0
 d14  - x_50 >= 0
 d14  - x_72 >= 0
 d14  - x_54 >= 0
 d14  - x_73 >= 0
 d14  - x_58 >= 0
 d14  - x_74 >= 0
 d14  - x_62 >= 0
 d14  - x_75 >= 0
x_51   +  x_76   +  x_55   +  x_77   +  x_59   +  x_78   +  x_63   +  x_79  - 5 d15 >= 0
 d15  - x_51 >= 0
 d15  - x_76 >= 0
 d15  - x_55 >= 0
 d15  - x_77 >= 0
 d15  - x_59 >= 0
 d15  - x_78 >= 0
 d15  - x_63 >= 0
 d15  - x_79 >= 0
x_64   +  x_80   +  x_68   +  x_81   +  x_72   +  x_82   +  x_76   +  x_83  - 5 d16 >= 0
 d16  - x_64 >= 0
 d16  - x_80 >= 0
 d16  - x_68 >= 0
 d16  - x_81 >= 0
 d16  - x_72 >= 0
 d16  - x_82 >= 0
 d16  - x_76 >= 0
 d16  - x_83 >= 0
x_65   +  x_84   +  x_69   +  x_85   +  x_73   +  x_86   +  x_77   +  x_87  - 5 d17 >= 0
 d17  - x_65 >= 0
 d17  - x_84 >= 0
 d17  - x_69 >= 0
 d17  - x_85 >= 0
 d17  - x_73 >= 0
 d17  - x_86 >= 0
 d17  - x_77 >= 0
 d17  - x_87 >= 0
x_66   +  x_88   +  x_70   +  x_89   +  x_74   +  x_90   +  x_78   +  x_91  - 5 d18 >= 0
 d18  - x_66 >= 0
 d18  - x_88 >= 0
 d18  - x_70 >= 0
 d18  - x_89 >= 0
 d18  - x_74 >= 0
 d18  - x_90 >= 0
 d18  - x_78 >= 0
 d18  - x_91 >= 0
x_67   +  x_92   +  x_71   +  x_93   +  x_75   +  x_94   +  x_79   +  x_95  - 5 d19 >= 0
 d19  - x_67 >= 0
 d19  - x_92 >= 0
 d19  - x_71 >= 0
 d19  - x_93 >= 0
 d19  - x_75 >= 0
 d19  - x_94 >= 0
 d19  - x_79 >= 0
 d19  - x_95 >= 0
x_80   +  x_96   +  x_84   +  x_97   +  x_88   +  x_98   +  x_92   +  x_99  - 5 d20 >= 0
 d20  - x_80 >= 0
 d20  - x_96 >= 0
 d20  - x_84 >= 0
 d20  - x_97 >= 0
 d20  - x_88 >= 0
 d20  - x_98 >= 0
 d20  - x_92 >= 0
 d20  - x_99 >= 0
x_81   +  x_100   +  x_85   +  x_101   +  x_89   +  x_102   +  x_93   +  x_103  - 5 d21 >= 0
 d21  - x_81 >= 0
 d21  - x_100 >= 0
 d21  - x_85 >= 0
 d21  - x_101 >= 0
 d21  - x_89 >= 0
 d21  - x_102 >= 0
 d21  - x_93 >= 0
 d21  - x_103 >= 0
x_82   +  x_104   +  x_86   +  x_105   +  x_90   +  x_106   +  x_94   +  x_107  - 5 d22 >= 0
 d22  - x_82 >= 0
 d22  - x_104 >= 0
 d22  - x_86 >= 0
 d22  - x_105 >= 0
 d22  - x_90 >= 0
 d22  - x_106 >= 0
 d22  - x_94 >= 0
 d22  - x_107 >= 0
x_83   +  x_108   +  x_87   +  x_109   +  x_91   +  x_110   +  x_95   +  x_111  - 5 d23 >= 0
 d23  - x_83 >= 0
 d23  - x_108 >= 0
 d23  - x_87 >= 0
 d23  - x_109 >= 0
 d23  - x_91 >= 0
 d23  - x_110 >= 0
 d23  - x_95 >= 0
 d23  - x_111 >= 0
x_96   +  x_112   +  x_100   +  x_113   +  x_104   +  x_114   +  x_108   +  x_115  - 5 d24 >= 0
 d24  - x_96 >= 0
 d24  - x_112 >= 0
 d24  - x_100 >= 0
 d24  - x_113 >= 0
 d24  - x_104 >= 0
 d24  - x_114 >= 0
 d24  - x_108 >= 0
 d24  - x_115 >= 0
x_97   +  x_116   +  x_101   +  x_117   +  x_105   +  x_118   +  x_109   +  x_119  - 5 d25 >= 0
 d25  - x_97 >= 0
 d25  - x_116 >= 0
 d25  - x_101 >= 0
 d25  - x_117 >= 0
 d25  - x_105 >= 0
 d25  - x_118 >= 0
 d25  - x_109 >= 0
 d25  - x_119 >= 0
x_98   +  x_120   +  x_102   +  x_121   +  x_106   +  x_122   +  x_110   +  x_123  - 5 d26 >= 0
 d26  - x_98 >= 0
 d26  - x_120 >= 0
 d26  - x_102 >= 0
 d26  - x_121 >= 0
 d26  - x_106 >= 0
 d26  - x_122 >= 0
 d26  - x_110 >= 0
 d26  - x_123 >= 0
x_99   +  x_124   +  x_103   +  x_125   +  x_107   +  x_126   +  x_111   +  x_127  - 5 d27 >= 0
 d27  - x_99 >= 0
 d27  - x_124 >= 0
 d27  - x_103 >= 0
 d27  - x_125 >= 0
 d27  - x_107 >= 0
 d27  - x_126 >= 0
 d27  - x_111 >= 0
 d27  - x_127 >= 0
x_112   +  x_128   +  x_116   +  x_129   +  x_120   +  x_130   +  x_124   +  x_131  - 5 d28 >= 0
 d28  - x_112 >= 0
 d28  - x_128 >= 0
 d28  - x_116 >= 0
 d28  - x_129 >= 0
 d28  - x_120 >= 0
 d28  - x_130 >= 0
 d28  - x_124 >= 0
 d28  - x_131 >= 0
x_113   +  x_132   +  x_117   +  x_133   +  x_121   +  x_134   +  x_125   +  x_135  - 5 d29 >= 0
 d29  - x_113 >= 0
 d29  - x_132 >= 0
 d29  - x_117 >= 0
 d29  - x_133 >= 0
 d29  - x_121 >= 0
 d29  - x_134 >= 0
 d29  - x_125 >= 0
 d29  - x_135 >= 0
x_114   +  x_136   +  x_118   +  x_137   +  x_122   +  x_138   +  x_126   +  x_139  - 5 d30 >= 0
 d30  - x_114 >= 0
 d30  - x_136 >= 0
 d30  - x_118 >= 0
 d30  - x_137 >= 0
 d30  - x_122 >= 0
 d30  - x_138 >= 0
 d30  - x_126 >= 0
 d30  - x_139 >= 0
x_115   +  x_140   +  x_119   +  x_141   +  x_123   +  x_142   +  x_127   +  x_143  - 5 d31 >= 0
 d31  - x_115 >= 0
 d31  - x_140 >= 0
 d31  - x_119 >= 0
 d31  - x_141 >= 0
 d31  - x_123 >= 0
 d31  - x_142 >= 0
 d31  - x_127 >= 0
 d31  - x_143 >= 0
x_128   +  x_144   +  x_132   +  x_145   +  x_136   +  x_146   +  x_140   +  x_147  - 5 d32 >= 0
 d32  - x_128 >= 0
 d32  - x_144 >= 0
 d32  - x_132 >= 0
 d32  - x_145 >= 0
 d32  - x_136 >= 0
 d32  - x_146 >= 0
 d32  - x_140 >= 0
 d32  - x_147 >= 0
x_129   +  x_148   +  x_133   +  x_149   +  x_137   +  x_150   +  x_141   +  x_151  - 5 d33 >= 0
 d33  - x_129 >= 0
 d33  - x_148 >= 0
 d33  - x_133 >= 0
 d33  - x_149 >= 0
 d33  - x_137 >= 0
 d33  - x_150 >= 0
 d33  - x_141 >= 0
 d33  - x_151 >= 0
x_130   +  x_152   +  x_134   +  x_153   +  x_138   +  x_154   +  x_142   +  x_155  - 5 d34 >= 0
 d34  - x_130 >= 0
 d34  - x_152 >= 0
 d34  - x_134 >= 0
 d34  - x_153 >= 0
 d34  - x_138 >= 0
 d34  - x_154 >= 0
 d34  - x_142 >= 0
 d34  - x_155 >= 0
x_131   +  x_156   +  x_135   +  x_157   +  x_139   +  x_158   +  x_143   +  x_159  - 5 d35 >= 0
 d35  - x_131 >= 0
 d35  - x_156 >= 0
 d35  - x_135 >= 0
 d35  - x_157 >= 0
 d35  - x_139 >= 0
 d35  - x_158 >= 0
 d35  - x_143 >= 0
 d35  - x_159 >= 0
x_144   +  x_160   +  x_148   +  x_161   +  x_152   +  x_162   +  x_156   +  x_163  - 5 d36 >= 0
 d36  - x_144 >= 0
 d36  - x_160 >= 0
 d36  - x_148 >= 0
 d36  - x_161 >= 0
 d36  - x_152 >= 0
 d36  - x_162 >= 0
 d36  - x_156 >= 0
 d36  - x_163 >= 0
x_145   +  x_164   +  x_149   +  x_165   +  x_153   +  x_166   +  x_157   +  x_167  - 5 d37 >= 0
 d37  - x_145 >= 0
 d37  - x_164 >= 0
 d37  - x_149 >= 0
 d37  - x_165 >= 0
 d37  - x_153 >= 0
 d37  - x_166 >= 0
 d37  - x_157 >= 0
 d37  - x_167 >= 0
x_146   +  x_168   +  x_150   +  x_169   +  x_154   +  x_170   +  x_158   +  x_171  - 5 d38 >= 0
 d38  - x_146 >= 0
 d38  - x_168 >= 0
 d38  - x_150 >= 0
 d38  - x_169 >= 0
 d38  - x_154 >= 0
 d38  - x_170 >= 0
 d38  - x_158 >= 0
 d38  - x_171 >= 0
x_147   +  x_172   +  x_151   +  x_173   +  x_155   +  x_174   +  x_159   +  x_175  - 5 d39 >= 0
 d39  - x_147 >= 0
 d39  - x_172 >= 0
 d39  - x_151 >= 0
 d39  - x_173 >= 0
 d39  - x_155 >= 0
 d39  - x_174 >= 0
 d39  - x_159 >= 0
 d39  - x_175 >= 0
x_160   +  x_176   +  x_164   +  x_177   +  x_168   +  x_178   +  x_172   +  x_179  - 5 d40 >= 0
 d40  - x_160 >= 0
 d40  - x_176 >= 0
 d40  - x_164 >= 0
 d40  - x_177 >= 0
 d40  - x_168 >= 0
 d40  - x_178 >= 0
 d40  - x_172 >= 0
 d40  - x_179 >= 0
x_161   +  x_180   +  x_165   +  x_181   +  x_169   +  x_182   +  x_173   +  x_183  - 5 d41 >= 0
 d41  - x_161 >= 0
 d41  - x_180 >= 0
 d41  - x_165 >= 0
 d41  - x_181 >= 0
 d41  - x_169 >= 0
 d41  - x_182 >= 0
 d41  - x_173 >= 0
 d41  - x_183 >= 0
x_162   +  x_184   +  x_166   +  x_185   +  x_170   +  x_186   +  x_174   +  x_187  - 5 d42 >= 0
 d42  - x_162 >= 0
 d42  - x_184 >= 0
 d42  - x_166 >= 0
 d42  - x_185 >= 0
 d42  - x_170 >= 0
 d42  - x_186 >= 0
 d42  - x_174 >= 0
 d42  - x_187 >= 0
x_163   +  x_188   +  x_167   +  x_189   +  x_171   +  x_190   +  x_175   +  x_191  - 5 d43 >= 0
 d43  - x_163 >= 0
 d43  - x_188 >= 0
 d43  - x_167 >= 0
 d43  - x_189 >= 0
 d43  - x_171 >= 0
 d43  - x_190 >= 0
 d43  - x_175 >= 0
 d43  - x_191 >= 0
x_0 + x_1 + x_2 + x_3 + x_4 + x_5 + x_6 + x_7 + x_8 + x_9 + x_10 + x_11 + x_12 + x_13 + x_14 + x_15 + x_16 + x_17 + x_18 + x_19 + x_20 + x_21 + x_22 + x_23 + x_24 + x_25 + x_26 + x_27 + x_28 + x_29 + x_30 + x_31 + x_32 + x_33 + x_34 + x_35 + x_36 + x_37 + x_38 + x_39 + x_40 + x_41 + x_42 + x_43 + x_44 + x_45 + x_46 + x_47 + x_48 + x_49 + x_50 + x_51 + x_52 + x_53 + x_54 + x_55 + x_56 + x_57 + x_58 + x_59 + x_60 + x_61 + x_62 + x_63 + x_64 + x_65 + x_66 + x_67 + x_68 + x_69 + x_70 + x_71 + x_72 + x_73 + x_74 + x_75 + x_76 + x_77 + x_78 + x_79 + x_80 + x_81 + x_82 + x_83 + x_84 + x_85 + x_86 + x_87 + x_88 + x_89 + x_90 + x_91 + x_92 + x_93 + x_94 + x_95 + x_96 + x_97 + x_98 + x_99 + x_100 + x_101 + x_102 + x_103 + x_104 + x_105 + x_106 + x_107 + x_108 + x_109 + x_110 + x_111 + x_112 + x_113 + x_114 + x_115 + x_116 + x_117 + x_118 + x_119 + x_120 + x_121 + x_122 + x_123 + x_124 + x_125 + x_126 + x_127 + x_128 + x_129 + x_130 + x_131 + x_132 + x_133 + x_134 + x_135 + x_136 + x_137 + x_138 + x_139 + x_140 + x_141 + x_142 + x_143 + x_144 + x_145 + x_146 + x_147 + x_148 + x_149 + x_150 + x_151 + x_152 + x_153 + x_154 + x_155 + x_156 + x_157 + x_158 + x_159 + x_160 + x_161 + x_162 + x_163 + x_164 + x_165 + x_166 + x_167 + x_168 + x_169 + x_170 + x_171 + x_172 + x_173 + x_174 + x_175  >= 1 



Binary
x_0
x_1
x_2
x_3
x_4
x_5
x_6
x_7
x_8
x_9
x_10
x_11
x_12
x_13
x_14
x_15
x_16
x_17
x_18
x_19
x_20
x_21
x_22
x_23
x_24
x_25
x_26
x_27
x_28
x_29
x_30
x_31
x_32
x_33
x_34
x_35
x_36
x_37
x_38
x_39
x_40
x_41
x_42
x_43
x_44
x_45
x_46
x_47
x_48
x_49
x_50
x_51
x_52
x_53
x_54
x_55
x_56
x_57
x_58
x_59
x_60
x_61
x_62
x_63
x_64
x_65
x_66
x_67
x_68
x_69
x_70
x_71
x_72
x_73
x_74
x_75
x_76
x_77
x_78
x_79
x_80
x_81
x_82
x_83
x_84
x_85
x_86
x_87
x_88
x_89
x_90
x_91
x_92
x_93
x_94
x_95
x_96
x_97
x_98
x_99
x_100
x_101
x_102
x_103
x_104
x_105
x_106
x_107
x_108
x_109
x_110
x_111
x_112
x_113
x_114
x_115
x_116
x_117
x_118
x_119
x_120
x_121
x_122
x_123
x_124
x_125
x_126
x_127
x_128
x_129
x_130
x_131
x_132
x_133
x_134
x_135
x_136
x_137
x_138
x_139
x_140
x_141
x_142
x_143
x_144
x_145
x_146
x_147
x_148
x_149
x_150
x_151
x_152
x_153
x_154
x_155
x_156
x_157
x_158
x_159
x_160
x_161
x_162
x_163
x_164
x_165
x_166
x_167
x_168
x_169
x_170
x_171
x_172
x_173
x_174
x_175
x_176
x_177
x_178
x_179
x_180
x_181
x_182
x_183
x_184
x_185
x_186
x_187
x_188
x_189
x_190
x_191
d0
d1
d2
d3
d4
d5
d6
d7
d8
d9
d10
d11
d12
d13
d14
d15
d16
d17
d18
d19
d20
d21
d22
d23
d24
d25
d26
d27
d28
d29
d30
d31
d32
d33
d34
d35
d36
d37
d38
d39
d40
d41
d42
d43
End
